language Essence 1.3

letting blksize_delta be
        function(1 --> 10, 2 --> 10, 3 --> 10, 4 --> 10, 5 --> 10, 6 --> 10, 7 --> 10, 8 --> 10, 9 --> 10, 10 --> 10,
                 11 --> 10, 12 --> 10, 13 --> 10, 14 --> 10, 15 --> 10, 16 --> 10, 17 --> 10, 18 --> 10, 19 --> 10,
                 20 --> 10, 21 --> 10, 22 --> 10, 23 --> 10, 24 --> 10, 25 --> 10, 26 --> 10, 27 --> 10, 28 --> 10,
                 29 --> 10)
letting maxcars be
        function(1 --> 10, 2 --> 10, 3 --> 10, 4 --> 10, 5 --> 10, 6 --> 10, 7 --> 10, 8 --> 10, 9 --> 10, 10 --> 10,
                 11 --> 10, 12 --> 10, 13 --> 10, 14 --> 10, 15 --> 10, 16 --> 10, 17 --> 10, 18 --> 10, 19 --> 10,
                 20 --> 10, 21 --> 10, 22 --> 10, 23 --> 10, 24 --> 10, 25 --> 10, 26 --> 10, 27 --> 10, 28 --> 10,
                 29 --> 10)
letting n_cars be 206
letting n_classes be 34
letting n_options be 29
letting quantity be
        function(1 --> 4, 2 --> 4, 3 --> 4, 4 --> 4, 5 --> 4, 6 --> 4, 7 --> 4, 8 --> 4, 9 --> 4, 10 --> 4, 11 --> 4,
                 12 --> 4, 13 --> 4, 14 --> 37, 15 --> 4, 16 --> 4, 17 --> 16, 18 --> 17, 19 --> 14, 20 --> 4, 21 --> 4,
                 22 --> 4, 23 --> 4, 24 --> 6, 25 --> 4, 26 --> 4, 27 --> 4, 28 --> 4, 29 --> 4, 30 --> 4, 31 --> 4,
                 32 --> 4, 33 --> 4, 34 --> 4)
letting usage be
        relation((1, 7), (1, 9), (1, 13), (1, 18), (2, 11), (2, 15), (2, 29), (3, 2), (3, 6), (3, 11), (4, 7), (4, 13),
                 (4, 27), (4, 29), (5, 12), (5, 15), (5, 29), (6, 8), (6, 19), (6, 23), (6, 27), (7, 6), (7, 10),
                 (7, 12), (7, 27), (8, 9), (9, 8), (9, 13), (9, 23), (9, 26), (10, 1), (10, 11), (11, 16), (12, 4),
                 (12, 13), (12, 19), (12, 22), (12, 28), (13, 2), (13, 5), (13, 11), (13, 18), (14, 21), (15, 14),
                 (15, 21), (15, 27), (16, 14), (16, 15), (16, 17), (17, 1), (17, 5), (17, 28), (18, 4), (18, 27),
                 (19, 20), (19, 23), (20, 29), (21, 1), (21, 8), (21, 12), (21, 26), (21, 29), (22, 3), (22, 5),
                 (22, 12), (22, 19), (23, 5), (23, 13), (23, 24), (23, 28), (24, 7), (24, 22), (24, 24), (24, 27),
                 (25, 13), (26, 4), (26, 8), (26, 14), (27, 9), (27, 14), (27, 20), (27, 23), (27, 28), (28, 18),
                 (28, 24), (29, 10), (30, 2), (30, 3), (30, 7), (30, 27), (30, 28), (31, 5), (31, 24), (32, 8),
                 (32, 11), (32, 12), (32, 17), (33, 3), (33, 9), (33, 13), (33, 14), (33, 24), (33, 26), (34, 3),
                 (34, 7), (34, 25), (34, 29))
$ Visualisation for usage
$  1  7
$  1  9
$  1 13
$  1 18
$  2 11
$  2 15
$  2 29
$  3  2
$  3  6
$  3 11
$  4  7
$  4 13
$  4 27
$  4 29
$  5 12
$  5 15
$  5 29
$  6  8
$  6 19
$  6 23
$  6 27
$  7  6
$  7 10
$  7 12
$  7 27
$  8  9
$  9  8
$  9 13
$  9 23
$  9 26
$ 10  1
$ 10 11
$ 11 16
$ 12  4
$ 12 13
$ 12 19
$ 12 22
$ 12 28
$ 13  2
$ 13  5
$ 13 11
$ 13 18
$ 14 21
$ 15 14
$ 15 21
$ 15 27
$ 16 14
$ 16 15
$ 16 17
$ 17  1
$ 17  5
$ 17 28
$ 18  4
$ 18 27
$ 19 20
$ 19 23
$ 20 29
$ 21  1
$ 21  8
$ 21 12
$ 21 26
$ 21 29
$ 22  3
$ 22  5
$ 22 12
$ 22 19
$ 23  5
$ 23 13
$ 23 24
$ 23 28
$ 24  7
$ 24 22
$ 24 24
$ 24 27
$ 25 13
$ 26  4
$ 26  8
$ 26 14
$ 27  9
$ 27 14
$ 27 20
$ 27 23
$ 27 28
$ 28 18
$ 28 24
$ 29 10
$ 30  2
$ 30  3
$ 30  7
$ 30 27
$ 30 28
$ 31  5
$ 31 24
$ 32  8
$ 32 11
$ 32 12
$ 32 17
$ 33  3
$ 33  9
$ 33 13
$ 33 14
$ 33 24
$ 33 26
$ 34  3
$ 34  7
$ 34 25
$ 34 29

